 #  STEP:       30001
1.000000
     53.40987900        0.00000000        0.00000000
      0.00000000       31.96246700        0.00000000
      0.00000000        0.00000000       28.62222800
   242     254       2     105
Cartesian
     -2.62278600        4.61747700        1.80993600
     -2.61468700        4.63384900        6.14140200
     -2.58551700        5.84123200        3.97181000
     -2.61886500        5.88815100        8.34446900
     -2.60454800        7.09762400        1.74677400
     -2.60032000        7.06764800        6.12571200
     -2.60605500        8.42147600        3.95191200
     -2.59979300        8.38059000        8.32221300
     -2.59855000        9.59425200        1.80367500
     -2.57260800        9.69402400        6.15769100
     -2.57631000       10.91277300        3.98796400
     -2.60966900       10.88775400        8.30199600
     -2.61952000       12.16400000        1.82180000
     -2.60914500       12.15754200        6.13401900
     -2.59407900       13.46455500        3.93769800
     -2.60386500       13.45840500        8.33892800
     14.51658000        4.58824200        4.75164100
     14.52978100        4.61988400        9.11479800
     14.51975000        5.89908800        2.50246700
     14.49731100        5.89859400        6.88634500
     14.50260400        7.17890700        4.73778800
     14.48165700        7.10301900        9.00518600
     14.55616500        8.37179100        2.53965300
     14.48284300        8.36578000        6.83334600
     14.48665100        9.66381300        4.74493400
     14.50814200        9.67804200        9.06255300
     14.54972400       11.02315000        2.51817600
     14.50416100       10.97220000        6.91102300
     14.50101700       12.17184900        4.77006000
     14.51628900       12.18269100        9.03972500
     14.53476200       13.44358000        2.55974400
     14.48197200       13.47411100        6.90072700
     19.79125200        8.33540000       -0.59560400
     20.38987100        8.61426600       -2.04039100
     23.99308000       16.37768100        4.14001600
     24.71904400       14.99491500        3.53430100
     38.24629900        8.12482300        2.72080300
     37.36382700        6.83929300       11.67515500
     47.40473900       13.38421200       12.81342400
     48.54612400        2.21514700       12.84984400
     36.23383200       11.26809100        5.99582300
     34.95075400       11.73784800        5.23250700
     26.96543800       12.99000900       14.32392900
     27.95297500       13.92119700        4.69577600
     16.54673300       16.76418800        1.13624300
     16.23805100       17.93098300        0.22093400
     29.86309600       13.43458900       10.02570300
     46.39525500        7.55835600        2.31479300
     43.84979900        5.46224100        6.15857200
     44.60110800        6.68288800        5.47382100
     30.41740400       11.02091100        4.53091400
     29.27791800       12.01034300        4.91426900
     48.78709300       -2.62038400        1.93948900
     48.45900000       -1.10584100        2.23133500
     19.66107600       19.08076200        1.52809400
     19.72981400        7.32136700        1.65328400
     21.59346600       14.53437400        3.62819400
     21.50950400       13.52928200        2.37156000
     17.44909100       17.72710500       -3.97149900
     18.41445700       16.97316800       -2.92883500
     23.13841000       13.91625500        6.19994900
     24.35199400       14.54736400        5.67517300
     21.50958800       15.18025600        7.12745400
     20.74639400       14.01046100        6.43467700
     20.61956800       11.45058800        1.87507700
     19.15705900       11.49010500        2.38471200
     39.14406800       12.34004400        5.74824100
     37.91497500       13.40413600        5.19665200
     32.40721100        8.59275700        9.84548100
     31.76872400        9.70868900       10.84068500
     40.42457900       -1.58144500       -1.86493900
     39.12128600       -0.73526200       -1.82213300
     37.71284500        4.35925800       10.12777000
     48.52869100        2.25628800       16.07806700
     19.94123700       11.81782200       -2.02416400
     20.71977100       12.25857100       -0.66712100
     21.09676700        9.24275200       -5.22327600
     21.09505700        9.77577300       -3.85424800
     16.81557100        8.42478400        2.30053500
     16.27720000        9.80980300        2.60198500
     40.67214800       16.35309500       16.74001700
     39.55359600       15.87612600       17.54506400
     22.83105700        7.95924800        5.68018700
     21.94973700        6.77436300        5.92247900
     35.05431700       15.65922900        6.29299900
     34.16264500        4.47937100        6.49183600
     35.55422200       11.33983700        2.42096400
     34.73478300       12.57604500        2.78218700
     29.24031400       16.46906600       11.48215700
     30.32736000        6.44003500       10.57802900
     37.23280400        3.71965300        7.15693600
     32.38451800       10.70567700       13.00584600
     29.05622700       14.07275200        7.85600700
     30.37755300       13.73985600        7.02980800
     23.51896400       13.46884400        2.52761000
     24.57961900       14.15611600        1.55217400
     18.94446500       14.78096400       -4.25371500
     18.41422000       13.45963500       -3.65220700
     34.16495600       16.09011300        9.52222100
     34.07367200       14.60289700        9.45043700
     34.64059100       18.74239800       11.62838900
     36.21585100       19.06189300       11.76402800
     21.41653200        9.95774100       -1.19369300
     22.64667500        9.28168800       -1.44539200
     45.42936800       -3.80754100        9.14604300
     43.97780300       -3.57455400        9.28337000
     41.03807700        0.36076400       -0.52679400
     41.70295700        1.47995600        0.51730300
     22.42672500        9.62672900        1.92607300
     23.54620400        9.10018100        2.93456000
     27.42983200       18.18147900       14.11518800
     27.62393400       19.26329200       13.00704100
     44.19601200       11.87300600       -4.55972400
     43.73528300       11.66900000       -3.07498900
     37.06827200        8.69130700        9.12031600
     38.57126300        8.38895000        0.33257300
     32.00629200        6.59911400       13.14827700
     32.51410300        7.89966700       12.34090900
     29.85921300        8.34324900        7.00320000
     30.17383000        6.91668500        7.36963800
     32.78973900        8.41836600        7.46077500
     35.95244800        7.29283900        7.85853500
     42.00487200       -2.11633600        0.58982200
     43.20525500       -1.18775000        9.76333300
     26.93198800        7.46329200       11.85779100
     26.26332000        6.11185000        3.57439600
     36.52232700        4.96340500        7.78070500
     33.85302200        9.94006900        9.33691600
     16.75322700        4.91177600        2.94397400
     17.70449600        4.83378100        1.74429800
     40.65092400       -2.40344900       11.45536900
     40.19477700        8.00925700       10.02481400
     48.02616500        4.59831300       15.22077900
     46.70615500        5.21314800       14.61145800
     45.82826500       -0.25100500        2.82894600
     45.05773100        0.86278300        2.22508200
     37.74683000       10.93489900        5.99546400
     37.76867000       10.02737700        4.69334800
     39.06785100        7.50737700       13.16284500
     39.05164600        7.44024100       14.75919100
     42.53874500        6.72304900       10.56401300
     42.80309900        6.34189600       12.14930200
     23.14681400        7.41910800        1.29322500
     23.75027400        6.02096300        0.77684400
     42.14942300        4.53342400        4.57409700
     42.35961100        3.21736900       -4.95355000
     33.21593200        8.14634400        5.51850500
     34.51219600        8.73541600        6.18622500
     38.15334000       10.22780100       10.92939400
     38.07619600       11.67160600       11.77512400
     21.05293300       12.16942600        4.50987300
     22.09283300       11.34325300        5.45112000
     32.43518300       12.74295900        6.32151000
     32.64264600       13.50186200        7.50162800
     26.69866800        8.11174900       -0.67909400
     26.05859700        9.01730600        0.27950600
     24.32761700       14.77750900       -0.79152800
     25.43606100       15.57486300        0.00581500
     17.31453900       12.08073800       -7.17528700
     18.03879700       12.91770000       -5.88851100
     16.20739400        9.66854800       -2.25937700
     17.48220400        9.20521600       -1.51776200
     45.36219100        4.35741200        2.13407400
     45.21757100        4.87031600        3.67633100
     24.57366800       12.42777300       -3.22052500
     24.88152400       11.95697800       -4.72658200
     22.33095400       11.37784500       -0.16825400
     23.00806700       12.56114100        0.30800800
     25.24640000       11.41954300       -0.83416200
     24.63716500       10.18485100       -0.95786500
     30.63437600       10.77723800        7.09702500
     31.00242600        9.73624500        8.26718100
     31.30074700       13.49485200       10.42283200
     31.91384000        7.38907900        7.95720100
     21.58088500       16.86877700       -5.78647700
     20.37700700       17.12281100        3.86634100
     25.16933900        8.49301700        4.77356300
     24.44942900        9.91124900        4.74283000
     41.99679900        4.44819800        7.40872000
     43.20242900        5.08673700        8.22561300
     35.41419600       12.68397200        9.13027900
     35.12623600       12.48102900        7.67780500
     34.23394300       10.17588700        7.75321000
     37.00221100        5.42979500        9.33823700
     26.57686800       15.76630600        6.10021200
     27.71822200        6.21098400        7.04297500
     47.46720900       -5.45774900       10.73994100
     48.69413500       -4.86027900        9.98804500
     32.01163200        5.62137400        8.97878300
     30.68474600        4.83674200        8.78611300
     36.16672200        4.37502500        3.61920600
     37.67310500       14.90595600        3.76465600
     33.28912600       11.20253700        5.28125000
     40.99629000       12.48708100        7.20898800
     33.82422300        4.69638900        2.66241100
     34.06950300        4.55429900        4.28776400
     16.73176300       12.10779000       -4.53765900
     17.28367600       10.84756300       -4.06544800
     17.31862100       12.89116300       -1.33440300
     16.65797200       13.98470900       -2.27194500
     21.78218500       16.19529400        0.65920600
     20.50482700       16.70514300       -0.01744100
     38.93831700       11.58421300        8.69318300
     37.39887900        1.40289000        8.61167700
     47.72092900       -2.86525200        5.52495400
     48.38764400       -2.00260300        4.39828600
     17.90522700        6.70952600       -0.83513900
     18.25951000        5.39898000       -1.20893700
     26.84289800       12.30837300        2.06891500
     27.54853800       12.23670000        0.75776900
     27.53205900       10.33008300        6.43445300
     27.96881000       10.04046900        7.87468800
     18.43173500       11.43172800       -9.07716400
     17.06719500       10.68379600       -0.28067500
     44.98518500        6.62325200        2.16466200
     48.68153600        3.35430300       17.20770300
     48.44270800      -10.48742700        5.70855800
     47.50289500       -9.16959600        5.91621800
     42.35194200       10.71759800        3.41872900
     41.58083900        9.81675700        2.25385700
     30.26576400       11.35038000       10.41264300
     29.61272400       10.10677700        2.32217500
     30.35953000        5.92119600       14.64091200
     31.56917500        4.95497600       14.40703900
     47.62984600        1.43980800        1.93098800
     47.42118100        0.38191600        0.70073000
     27.22413700       14.48421500        1.11205600
     27.43133800       15.92298100        1.50022900
     35.13124500        8.29914600        8.76923800
     41.01082800       13.28127200        5.81742400
     42.22807800       -1.80407900        3.76713800
     41.54856300       -2.60802200        4.94733300
     36.56864500        7.70998300        5.48739500
     37.18656300        6.41350100        6.29643900
     40.42402800        3.40386000        1.06530300
     40.99094500        4.64581300        2.08390100
     28.88262300        8.29216700       10.99287800
     27.76484200        9.30371800       10.22694700
     19.71573300       14.91903400       -8.20721300
     19.76089800       14.35181700        1.92758400
     44.22664200        3.24172900        6.56170800
     44.93861600        2.99929500        7.93651700
     -1.51109200        4.60884300        1.79304600
     -1.00493900        4.58947300        3.25689400
      0.54954500        4.59364400        3.24126900
      1.06189700        4.58886300        4.69461300
      2.60871100        4.58703200        4.69316200
      3.12352300        4.59708200        6.15665000
     -1.50544900        4.58666300        6.16155800
     -1.01713100        4.58611800        7.60597800
      0.53788100        4.58191200        7.60063600
      1.04052600        4.58762300        9.06527400
      2.59084900        4.58293800        9.06973100
      3.11092000        4.59770100        1.77739800
      1.05052800        5.86049600        2.51450300
      2.58931700        5.85077400        2.52506100
      3.10791500        5.87045900        3.97809500
     -1.47483900        5.84432700        3.97739500
     -0.99219600        5.84229200        5.44065800
      0.55393700        5.84900100        5.43315600
      1.06339200        5.85874500        6.88461000
      2.60356800        5.85712500        6.89344000
      3.12317000        5.85473700        8.34494600
     -1.49906600        5.84761800        8.35301600
     -0.99283900        5.85448500        9.80005400
      0.53852600        5.85271800        9.79130600
     -1.49415900        7.11579400        1.78220700
     -1.02259600        7.12121700        3.23497600
      0.53204600        7.12566200        3.23422500
      1.05631400        7.12377200        4.69844300
      2.59283400        7.11980100        4.70079700
      3.12454400        7.12447900        6.15532500
     -1.49430800        7.10322100        6.13809100
     -1.01865000        7.11810200        7.61523200
      0.54006000        7.11718900        7.60929400
      1.05701400        7.12191800        9.06304300
      2.59895900        7.11390900        9.07417700
      3.11229600        7.12026300        1.78552700
      1.06832300        8.38415500        2.50559000
      2.60708200        8.37443200        2.50682900
      3.13039700        8.37865500        3.96082100
     -1.50695500        8.38777600        3.97281600
     -0.99669500        8.37815800        5.41454900
      0.54488400        8.38928200        5.42437100
      1.06142200        8.39195400        6.87828400
      2.60810900        8.37944700        6.87402300
      3.12587500        8.38216600        8.33758100
     -1.48935700        8.38392800        8.34731500
     -1.01319300        8.39156500        9.80739400
      0.55391000        8.38563100        9.79945300
     -1.49132000        9.64211900        1.78600500
     -0.99606800        9.65143200        3.23175000
      0.55920400        9.65066000        3.23688500
      1.07535800        9.65692400        4.69509500
      2.61143100        9.65211400        4.68089400
      3.13031600        9.65480300        6.13677800
     -1.47263600        9.66020500        6.14532000
     -0.99151300        9.64072800        7.61835800
      0.55461000        9.63992800        7.61677400
      1.06653700        9.65272800        9.07028400
      2.60639700        9.65090500        9.07232500
      3.12358400        9.65502300        1.77384900
      1.06500600       10.92534100        2.51017900
      2.60833100       10.91772700        2.51229300
      3.13082400       10.92085300        3.96066200
     -1.46620900       10.91613700        3.97047400
     -0.97426400       10.92735100        5.41929300
      0.57271700       10.92544200        5.42724400
      1.06497900       10.90981800        6.89455300
      2.60273900       10.90845900        6.89733300
      3.10553800       10.93786700        8.35529900
     -1.49864700       10.89530700        8.33477400
     -1.02915600       10.90249400        9.80021900
      0.52232300       10.90886000        9.80007000
     -1.50891800       12.16050400        1.78611800
     -0.99695400       12.18754300        3.23379000
      0.55681900       12.19059300        3.22845600
      1.06819900       12.19074700        4.69852000
      2.60626300       12.18078100        4.70246100
      3.11086800       12.18343400        6.15536400
     -1.50226500       12.18811400        6.16039600
     -1.02221600       12.17483200        7.60941600
      0.53148200       12.17504100        7.61367400
      1.02007100       12.17940900        9.08181800
      2.56833300       12.18418600        9.08731000
      3.12448000       12.19311100        1.78747700
      1.06201800       13.45737900        2.50700600
      2.60752800       13.45244200        2.50963000
      3.12348500       13.44377400        3.97111300
     -1.48844700       13.45179600        3.97348000
     -1.02203000       13.44837900        5.43097700
      0.54066500       13.44754000        5.43052400
      1.06283900       13.44285700        6.88364000
      2.60873200       13.44558800        6.88642800
      3.11465500       13.44300300        8.34644800
     -1.50138000       13.44808800        8.35117300
     -1.03917300       13.44574700        9.81152500
      0.51421500       13.45070200        9.80111900
      4.64921900        4.59207100        1.78510300
      5.14199800        4.60132600        3.24227400
      7.25231900        4.61162300        4.73691800
      8.78342100        4.60191400        4.72362800
      9.30547800        4.61161400        6.17456300
      4.66617700        4.60330600        6.16214100
      5.18439600        4.61237500        7.62096500
      6.72116900        4.61082600        7.61649000
      7.26269900        4.61408500        9.07165100
      8.80608400        4.60144100        9.08340700
      9.30412200        4.59882300        1.79744600
      7.27616200        5.91481600        2.51415900
      8.79606200        5.87515400        2.52635300
      9.31221300        5.87244300        3.97970400
      4.64256100        5.85517400        3.96383800
      5.17722400        5.86861500        5.41311600
      6.72004500        5.86559200        5.43327000
      7.23873300        5.88959100        6.88630300
      8.78037300        5.87213400        6.90131400
      9.30171400        5.87667300        8.35185700
      4.66912000        5.85214600        8.34996800
      5.18597100        5.87031000        9.79811000
      6.73570900        5.86268600        9.81725800
      4.65920600        7.11369400        1.78917100
      5.18996300        7.13019000        3.22002700
      6.73187900        7.13149300        3.24066900
      7.23766800        7.14210000        4.69505200
      8.78570800        7.13132500        4.70059000
      9.30049100        7.13734300        6.15876800
      4.66561500        7.11391700        6.15068200
      5.17909200        7.12506900        7.61377500
      6.72324000        7.13157200        7.62972100
      7.24960000        7.13923000        9.08127900
      8.78463700        7.13548500        9.09304400
      9.31259400        7.14799400        1.79112400
      7.24956400        8.41061000        2.51644600
      8.79132000        8.39863700        2.52509200
      9.31767600        8.41001200        3.97235400
      4.67081300        8.37473100        3.94626700
      5.17060800        8.39005300        5.40757800
      6.71550600        8.39271400        5.42771900
      7.25404400        8.39737600        6.89065000
      8.78299100        8.38380000        6.88546900
      9.30636200        8.40881200        8.35594900
      4.64904300        8.34267600        8.35369700
      5.18424800        8.39030400        9.79228500
      6.73358100        8.38691600        9.81272800
      4.66099800        9.65247400        1.77115800
      5.18391600        9.66693800        3.23323900
      6.72201000        9.65869200        3.24322200
      7.24208200        9.67722600        4.68597200
      8.79032900        9.66832600        4.68829500
      9.28938700        9.66663000        6.15193900
      4.65208500        9.64299100        6.10875200
      6.75937000        9.64676100        7.62147300
      7.27342500        9.66998900        9.07067500
      8.80230300        9.66544900        9.09897900
      9.31469200        9.66674000        1.80508900
      7.24811000       10.92550700        2.51148500
      8.79248200       10.92343500        2.52584400
      9.32136800       10.93446200        3.97369500
      4.66762400       10.92608600        3.95398400
      5.18526200       10.93022400        5.40397100
      6.72756200       10.92483900        5.42110100
      7.25491800       10.92747500        6.88252500
      8.78598400       10.93443300        6.88769200
      9.30780600       10.93787300        8.34917000
      4.63708000       10.94372400        8.36011800
      5.17697700       10.94157800        9.79154000
      6.73228200       10.91835300        9.79453400
      4.66892200       12.18914100        1.78845200
      5.19698300       12.19517200        3.23538400
      6.74026800       12.17894600        3.23207900
      7.25136300       12.20373700        4.69224300
      8.79380000       12.20027500        4.70384500
      9.29173700       12.20473700        6.16008500
      4.65445700       12.18191700        6.15520700
      5.16832800       12.20576300        7.60955800
      6.71237400       12.18414500        7.60873600
      7.24496300       12.20180600        9.05393100
      8.78511200       12.19402800        9.07972300
      9.31163500       12.19662200        1.79118600
      7.25213100       13.43535400        2.48719100
      8.77838600       13.44961000        2.51828100
      9.30068800       13.47328400        3.97829200
      4.65744500       13.44552800        3.97345600
      5.18545200       13.46214900        5.43142000
      6.72304900       13.45903200        5.43956100
      7.23808500       13.47397500        6.88869000
      8.79056500       13.46693300        6.90806500
      9.31530400       13.46183200        8.36051800
      4.66107300       13.45376200        8.34491300
      5.18469000       13.46572300        9.79587500
      6.73388600       13.44883000        9.78797300
     10.85199900        4.59305300        1.79460400
     11.37903800        4.60032300        3.24776600
     12.93810500        4.60901000        3.25453200
     13.40599800        4.61124700        4.72122800
     10.85098800        4.60462200        6.17874700
     11.36973000        4.60926200        7.63243200
     12.92557100        4.61373300        7.62446900
     13.42658800        4.61228400        9.07886000
     13.41299700        5.88670500        2.51287400
     10.86201100        5.86532000        3.97701300
     11.35119700        5.87172400        5.43006700
     12.90412800        5.87632800        5.43952000
     13.38654500        5.88768000        6.88261600
     10.84336800        5.88135000        8.34761600
     11.35693100        5.87338600        9.79951400
     12.89754900        5.87392900        9.79007300
     10.85748100        7.14279600        1.77944800
     11.37859700        7.14650100        3.23680700
     12.92866700        7.14183400        3.24418700
     13.39427000        7.14850700        4.71067300
     10.82822900        7.13186400        6.15764200
     11.33837600        7.14922800        7.61271200
     12.89015000        7.14972500        7.60164900
     13.37397100        7.14035300        9.06400000
     13.45265600        8.39898400        2.51488100
     10.86923500        8.40543800        3.96773000
     11.34183200        8.40271400        5.42250600
     12.88621800        8.40982000        5.43514500
     13.37844300        8.40509900        6.87704300
     10.85029200        8.40409700        8.34523200
     11.37801800        8.41348200        9.80263000
     12.93092900        8.40717600        9.80734200
     10.85902900        9.66644600        1.78887300
     11.39604400        9.67315900        3.23107600
     12.95553200        9.67935500        3.24238200
     13.38184900        9.67429100        4.71958000
     10.83004000        9.67139100        6.14891500
     11.35278200        9.67665600        7.59915000
     12.90842900        9.67547100        7.61710100
     13.39881100        9.66574900        9.07793000
     13.43769500       10.95908700        2.52085000
     10.87209900       10.93367000        3.97451700
     11.35657300       10.94538700        5.43482300
     12.89421400       10.94301100        5.45274200
     13.39654100       10.94217400        6.89855500
     10.85354000       10.93887900        8.33845200
     11.36883600       10.93098000        9.80391800
     12.92725200       10.94111600        9.81233500
     10.85676100       12.19010700        1.79487400
     11.36561700       12.20095400        3.25017100
     12.91394100       12.20184400        3.25950900
     13.39395300       12.19543300        4.72766700
     10.83317400       12.20681300        6.15620800
     11.34978800       12.20450000        7.61800700
     12.89786600       12.20519300        7.61555000
     13.40664000       12.20172600        9.06659000
     13.42781600       13.45786600        2.53128700
     10.84224200       13.46828500        3.98941300
     11.34750300       13.46969000        5.43986000
     12.89615200       13.46281300        5.44422400
     13.37705500       13.46561200        6.89071400
     10.85341200       13.46263000        8.36300800
     11.38322600       13.45181400        9.81448200
     12.94799200       13.46024700        9.80761000
      6.71650000        4.58281300        3.25423100
      5.17532200        9.66546000        7.59911300
     35.61287800        7.39730000        8.81696000
     38.31612500       10.70332400       11.83598400
     34.23642000        5.28149400        5.92093000
     32.19209400        8.27833500        8.27990800
     30.76550300       13.39798900        9.57513800
     35.35437500       11.67040700        6.13318300
     29.51827200       14.24470100        7.03029400
     32.79942000        7.18703700       12.95961600
     30.35353800       10.49056200        8.01540200
     38.17083800        2.03592900        8.58881000
     37.90257600        8.92297900        0.92998200
     32.95491200       11.48185800       13.14286300
     40.41612000        4.37667600        1.33308700
     40.41903000        8.45124400       10.86771800
     34.59745100       10.13403100        8.68704100
     39.90883200       16.72053700       17.18951100
     36.58612300        7.16768300        6.32305700
     40.44539700       13.05474400        6.63773700
     30.05024600       11.52925200        5.27717800
     35.34279700       19.47504000        2.77675800
     39.86944100       -1.01639000       -1.28197100
     26.94491200       13.71037300        4.85248700
     39.65602000        7.59767900       13.98203100
     34.99085500       13.17605700        8.37330000
     37.73225400        7.63898400        3.44216500
     44.27071100        2.64056200        7.35353500
     40.89888300        1.11754400        0.10150600
     48.18743300       -2.02778300        2.42575000
     42.44605800       -2.35143900        4.58209400
     21.86832200       13.66895800        3.28232500
     44.61420300       -4.31130000        9.37343400
     22.32914200       10.17818200       -1.46761500
     19.88135000       11.93028200       -1.03377500
     18.04015300       16.93449700       -3.83494900
     19.90480100       10.86092400        2.27926500
     16.88341600       11.67106700       -3.66184700
     24.73404300       15.70737200        4.29679200
     19.76992300        8.94369900       -1.34901200
     22.50368300        7.40107000        6.46147000
     27.11883900        6.46487600       11.92191700
     22.07926200       12.22805100        0.45588100
     24.27457400        8.92639000        4.77254800
     27.11154400       19.06906300       13.89400100
     16.96709100       17.58390000        0.76579000
     19.21821000       14.26616700        1.10112100
     21.14242200       15.96533300       -0.04047100
     47.71593200       -4.75833400       10.05546300
     42.35932900       10.37509500        2.47035900
     41.63427500        3.76187700        4.21857600
     17.45617800       11.56462700       -0.14477500
     42.98447300       -2.06553800        0.49696700
     33.53833100       15.36785700        9.68671600
     24.70440400       14.92654000        0.10318400
     27.73749100       12.49123500        1.69463200
     45.40623300        7.51979300        2.27360200
     30.88560500        5.47383200       13.89573600
     16.48808000        9.15042200       -1.46894100
     21.20517100       11.79016000        5.39132100
     19.02558400       13.80156700       -4.36740900
     29.57550700        7.46483700        6.81216800
     26.70211200        8.27645600        0.32247300
     32.21219400       13.61630200        6.62945500
     24.16449100       13.89000500        6.38095600